c Reduced graph for GEOM30_4 generated by Cyril Grelier
p edge 21 36
e 1 8
e 1 9
e 1 10
e 1 11
e 1 12
e 1 13
e 2 3
e 2 4
e 2 5
e 2 6
e 2 7
e 3 4
e 3 5
e 3 6
e 3 7
e 4 5
e 4 6
e 4 7
e 5 6
e 5 7
e 6 7
e 8 9
e 8 10
e 8 11
e 9 11
e 9 13
e 10 12
e 12 13
e 14 15
e 14 16
e 14 17
e 15 18
e 15 19
e 16 17
e 18 19
e 20 21
